100
120
99
99
99
99
99
96
96
96
95
94
93
93
91
91
91
89
87
87
86
86
85
85
84
83
82
82
81
81
76
75
75
74
72
68
68
66
65
64
64
64
63
61
61
60
60
59
58
56
56
56
55
55
54
54
52
51
51
46
44
43
41
40
39
39
39
39
38
37
37
36
36
35
33
29
28
27
26
23
23
21
17
17
14
13
11
11
10
10
10
9
9
9
8
6
6
4
4
3
3
2
